SECTION Graph
Nodes 230
Edges 229

E 1 55 297
E 1 175 195
E 1 243 196
E 1 475 198
E 2 49 294
E 2 128 294
E 2 205 190
E 3 59 307
E 3 82 301
E 4 344 195
E 4 456 195
E 5 73 306
E 5 154 297
E 6 20 295
E 6 76 300
E 7 108 304
E 8 123 295
E 9 59 311
E 9 148 290
E 9 529 190
E 10 349 194
E 10 407 205
E 11 42 297
E 12 587 198
E 13 78 294
E 14 77 301
E 14 394 197
E 15 321 199
E 16 42 306
E 16 223 190
E 17 213 190
E 18 76 294
E 18 84 302
E 19 100 302
E 19 506 191
E 20 213 202
E 21 45 300
E 21 79 298
E 21 89 294
E 21 132 302
E 22 52 300
E 22 73 307
E 23 330 202
E 24 48 305
E 24 123 295
E 24 555 196
E 25 518 196
E 26 418 194
E 27 85 302
E 27 619 199
E 28 587 202
E 28 610 203
E 29 76 298
E 29 113 300
E 30 96 299
E 30 473 195
E 31 174 190
E 32 426 198
E 33 63 297
E 34 211 195
E 35 219 198
E 36 171 200
E 37 63 300
E 38 60 301
E 39 98 304
E 40 92 297
E 40 611 205
E 41 389 204
E 43 156 304
E 43 219 199
E 44 74 294
E 44 144 301
E 45 49 300
E 46 64 299
E 46 571 189
E 47 600 202
E 48 151 303
E 50 265 199
E 51 141 306
E 52 426 198
E 53 123 293
E 54 610 196
E 55 130 300
E 56 103 307
E 56 349 197
E 57 381 201
E 57 600 199
E 58 131 298
E 58 136 305
E 58 174 194
E 59 75 298
E 60 97 289
E 60 223 204
E 61 344 197
E 62 396 199
E 63 82 305
E 63 189 197
E 63 229 202
E 64 69 301
E 65 565 196
E 66 547 192
E 67 223 200
E 68 366 199
E 68 389 202
E 70 81 294
E 70 600 194
E 71 82 299
E 71 136 299
E 71 389 197
E 71 569 206
E 71 587 187
E 72 473 192
E 73 318 198
E 73 518 197
E 74 571 202
E 76 154 299
E 78 131 306
E 78 287 193
E 79 169 198
E 80 93 302
E 81 100 298
E 81 128 293
E 81 265 202
E 82 101 309
E 82 303 201
E 83 175 197
E 83 250 195
E 85 118 295
E 86 582 197
E 87 169 200
E 87 357 197
E 88 90 303
E 89 388 189
E 90 318 194
E 90 565 194
E 91 569 198
E 92 460 201
E 93 98 309
E 94 107 298
E 95 122 295
E 95 189 196
E 96 105 297
E 97 389 193
E 98 132 297
E 98 144 296
E 98 418 208
E 99 148 303
E 99 250 193
E 100 385 194
E 100 520 192
E 100 611 190
E 101 146 304
E 102 473 205
E 102 487 192
E 104 116 307
E 105 126 296
E 105 188 201
E 106 243 196
E 107 349 207
E 108 264 192
E 109 209 201
E 110 381 202
E 111 475 194
E 112 126 300
E 112 219 193
E 112 563 202
E 113 574 192
E 114 146 301
E 114 228 189
E 114 407 184
E 115 337 201
E 115 475 200
E 116 473 192
E 117 219 197
E 117 411 197
E 118 388 203
E 118 396 194
E 118 526 190
E 119 264 200
E 119 529 202
E 120 541 191
E 120 582 195
E 121 506 200
E 121 533 192
E 122 354 201
E 123 134 295
E 124 354 204
E 125 328 193
E 125 555 193
E 126 533 196
E 127 145 302
E 127 337 198
E 128 574 197
E 129 357 202
E 133 419 191
E 135 154 297
E 136 582 199
E 137 229 190
E 137 330 198
E 138 328 195
E 138 615 196
E 139 345 206
E 140 411 202
E 141 377 196
E 141 411 195
E 141 615 196
E 142 366 189
E 143 587 193
E 144 430 199
E 146 520 192
E 147 460 199
E 149 188 191
E 150 287 195
E 150 394 199
E 152 264 199
E 152 321 195
E 153 526 207
E 154 419 203
E 154 456 197
E 155 377 197
E 157 205 200
E 158 303 197
E 159 228 203
E 160 385 204
E 171 563 108
E 209 541 94
E 211 487 103
E 345 430 94
E 547 619 107
END
SECTION Terminals
T 1
T 2
T 3
T 4
T 5
T 6
T 7
T 8
T 9
T 10
T 11
T 12
T 13
T 14
T 15
T 16
T 17
T 18
T 19
T 20
T 21
T 22
T 23
T 24
T 25
T 26
T 27
T 28
T 29
T 30
T 31
T 32
T 33
T 34
T 35
T 36
T 37
T 38
T 39
T 40
T 41
T 42
T 43
T 44
T 45
T 46
T 47
T 48
T 49
T 50
T 51
T 52
T 53
T 54
T 55
T 56
T 57
T 58
T 59
T 60
T 61
T 62
T 63
T 64
T 65
T 66
T 67
T 68
T 69
T 70
T 71
T 72
T 73
T 74
T 75
T 76
T 77
T 78
T 79
T 80
T 81
T 82
T 83
T 84
T 85
T 86
T 87
T 88
T 89
T 90
T 91
T 92
T 93
T 94
T 95
T 96
T 97
T 98
T 99
T 100
T 101
T 102
T 103
T 104
T 105
T 106
T 107
T 108
T 109
T 110
T 111
T 112
T 113
T 114
T 115
T 116
T 117
T 118
T 119
T 120
T 121
T 122
T 123
T 124
T 125
T 126
T 127
T 128
T 129
T 130
T 131
T 132
T 133
T 134
T 135
T 136
T 137
T 138
T 139
T 140
T 141
T 142
T 143
T 144
T 145
T 146
T 147
T 148
T 149
T 150
T 151
T 152
T 153
T 154
T 155
T 156
T 157
T 158
T 159
T 160
END
SECTION Cost
52759
END
